17	4	3
20	20	21	25	39	6	43	
0	0	0	0	0	6	7	5	5	6	5	3	2	3	4
6	6	7	2	0	10	2	3	4	9	4	3	5	7	13
3	5	6	0	3	8	3	5	10	9	7	3	6	8	13
5	10	3	3	9	1	1	6	1	8	2	3	6	11	17
5	1	2	0	9	5	6	2	7	6	8	3	11	14	17
75	4	5	5	5	4	2	4	8	7	10	2	9	15
150	0	0	10	3	3	6	1	5	9	10	2	9	17
250	8	8	0	10	9	7	2	3	6	1	2	16	17
50	0	5	0	3	10	6	2	5	7	9	2	10	17
250	0	10	6	6	7	2	4	9	9	10	2	12	17
150	5	3	0	10	6	2	1	9	10	8	2	15	17
225	0	10	6	1	8	2	3	9	7	2	2	14	16
2	5	4	0	4	9	6	9	1	9	4	3	15	16	17
5	6	5	5	3	2	9	10	3	3	7	1	17
1	0	9	1	5	1	9	9	5	8	7	1	17
9	3	8	0	0	4	3	9	5	2	9	1	17
0	0	0	0	0	2	10	1	4	9	7	0
